W=8;
H=5;

MAX_TIME=9;
MAX_TRACKS=5;
SEMAPHORE_SUPPLY=1;

TARGET=(3,8);

TRAINS=[(3,1,RIGHT),(3,4,LEFT)];
DECOYS=[];

INIT_POS=[
(2,3,STRAIGHT_TD),
(3,1,STRAIGHT_RL),
(3,4,STRAIGHT_RL),
(3,7,STRAIGHT_RL),
(3,8,STRAIGHT_RL),
];
TUNNEL_PAIRS=[
  (1, 3, DOWN, 5, 6, TOP),
];

GATES=[
(3,7,1,false),
];
ACTIVATIONS=[
(2,3,1),
];

DSWITCHES=[];
STATIONS=[];
